
GUB cover cuts applied:  2
Cover cuts applied:  5
Implied bound cuts applied:  24
Mixed integer rounding cuts applied:  2
Zero-half cuts applied:  2

Root node processing (before b&c):
  Real time             =    0.05 sec. (37.20 ticks)
Parallel b&c, 4 threads:
  Real time             =    0.02 sec. (14.72 ticks)
  Sync time (average)   =    0.00 sec.
  Wait time (average)   =    0.00 sec.
                          ------------
Total (root+branch&cut) =    0.07 sec. (51.91 ticks)
Version identifier: 12.10.0.0 | 2019-11-26 | 843d4de
CPXPARAM_MIP_Interval                            10
CPXPARAM_MIP_Tolerances_AbsMIPGap                0.98999999999999999
Tried aggregator 2 times.
MIP Presolve eliminated 2432 rows and 1156 columns.
MIP Presolve added 4 rows and 0 columns.
MIP Presolve modified 112 coefficients.
Aggregator did 11 substitutions.
Reduced MIP has 1161 rows, 162 columns, and 2665 nonzeros.
Reduced MIP has 128 binaries, 34 generals, 0 SOSs, and 0 indicators.
Presolve time = 0.00 sec. (4.58 ticks)
Probing fixed 0 vars, tightened 9 bounds.
Probing time = 0.00 sec. (0.53 ticks)
Cover probing fixed 0 vars, tightened 23 bounds.
Tried aggregator 1 time.
Detecting symmetries...
MIP Presolve eliminated 855 rows and 0 columns.
MIP Presolve modified 9 coefficients.
Reduced MIP has 306 rows, 162 columns, and 955 nonzeros.
Reduced MIP has 128 binaries, 34 generals, 0 SOSs, and 0 indicators.
Presolve time = 0.00 sec. (1.02 ticks)
Probing fixed 0 vars, tightened 10 bounds.
Probing time = 0.00 sec. (0.20 ticks)
Cover probing fixed 0 vars, tightened 19 bounds.
Clique table members: 210.
MIP emphasis: balance optimality and feasibility.
MIP search method: dynamic search.
Parallel mode: deterministic, using up to 4 threads.
Root relaxation solution time = 0.00 sec. (1.09 ticks)

        Nodes                                         Cuts/
   Node  Left     Objective  IInf  Best Integer    Best Bound    ItCnt     Gap

      0     0       22.3333    84                     22.3333      118         
      0     0       22.0000    84                    Cuts: 57      204         
      0     0       22.0000    84                   Cuts: 152      305         
      0     0       22.0000    84                     Cuts: 6      363         
      0     0       22.0000    84                    Cuts: 66      445         
*     0+    0                           20.0000       22.0000            10.00%
Detecting symmetries...
      0     2       22.0000    53       20.0000       22.0000      445   10.00%
Elapsed time = 0.08 sec. (52.95 ticks, tree = 0.02 MB, solutions = 1)
     10     7        cutoff             20.0000       22.0000      969   10.00%
     20    14       21.1667    81       20.0000       22.0000     1240   10.00%
     30    17       21.3201    50       20.0000       22.0000     1527   10.00%
     40    22       21.3333    83       20.0000       22.0000     2268   10.00%
     50    29       21.4444    38       20.0000       22.0000     3114   10.00%
     60    30       21.1667    68       20.0000       22.0000     3291   10.00%
     70    32        cutoff             20.0000       22.0000     2964   10.00%
     80    32       21.3333    48       20.0000       22.0000     3400   10.00%
     90    50        cutoff             20.0000       22.0000     4242   10.00%
    100    55       21.6923    68       20.0000       22.0000     4307   10.00%
Elapsed time = 0.11 sec. (75.18 ticks, tree = 0.04 MB, solutions = 1)
    110    56       21.0000    26       20.0000       22.0000     4330   10.00%
    120    57       21.0000    16       20.0000       22.0000     4399   10.00%
    130    57       21.3333    65       20.0000       22.0000     4575   10.00%
    140    62       21.0185    44       20.0000       22.0000     4972   10.00%
    150    65       21.3333    39       20.0000       22.0000     5035   10.00%
    160    67       21.5417    61       20.0000       22.0000     5226   10.00%
    170    66       21.6667    32       20.0000       22.0000     5626   10.00%
    180    69       21.5000    52       20.0000       22.0000     5333   10.00%
    190    66        cutoff             20.0000       21.9907     5368    9.95%
    200    68       21.8889    72       20.0000       21.9907     6006    9.95%
Elapsed time = 0.13 sec. (88.68 ticks, tree = 0.06 MB, solutions = 1)
    210    65        cutoff             20.0000       21.9907     5762    9.95%
    220    72       21.0000    36       20.0000       21.9907     6082    9.95%
    230    67        cutoff             20.0000       21.9907     6428    9.95%
    240    67       21.5556    86       20.0000       21.9722     6775    9.86%
    250    75       21.3333    49       20.0000       21.9722     6953    9.86%
    260    70       21.4444    27       20.0000       21.9722     6462    9.86%
    270    74       21.0000    51       20.0000       21.9630     6490    9.81%
    280    72        cutoff             20.0000       21.9630     7093    9.81%
    290    74       21.0053    79       20.0000       21.9630     7178    9.81%
    300    78       21.4167    57       20.0000       21.9630     7718    9.81%
Elapsed time = 0.14 sec. (101.57 ticks, tree = 0.07 MB, solutions = 1)
    310    73        cutoff             20.0000       21.9630     8085    9.81%
    320    77        cutoff             20.0000       21.9630     7658    9.81%
    330    78       21.0278    74       20.0000       21.9630     7739    9.81%
    340    73       21.0000    10       20.0000       21.9630     7487    9.81%
    350    72       21.0833    72       20.0000       21.9630     7548    9.81%
    360    77        cutoff             20.0000       21.9630     8035    9.81%
    370    70       21.0000    58       20.0000       21.8519     9266    9.26%
    380    71        cutoff             20.0000       21.8519     8463    9.26%
    390    73       21.0556    61       20.0000       21.6667     8535    8.33%
    400    68       21.0000    70       20.0000       21.6667     9427    8.33%
Elapsed time = 0.16 sec. (116.85 ticks, tree = 0.08 MB, solutions = 1)
    410    59        cutoff             20.0000       21.4667    10236    7.33%
    420    54        cutoff             20.0000       21.3333    10383    6.67%
    430    44       21.0303    61       20.0000       21.3333    10773    6.67%
    440    39        cutoff             20.0000       21.3333    10791    6.67%
    450    45        cutoff             20.0000       21.3333    10815    6.67%
    460    37        cutoff             20.0000       21.1667    10831    5.83%
    470     8        cutoff             20.0000       21.1667    11154    5.83%
    480    26        cutoff             20.0000       21.1667    11038    5.83%
the number of Nodes = 482
